c WARNING: for repeatability, setting FPU to use double precision
d VARIABLES            22400        
d CONSTRAINTS          88127        
c ============================[ Problem Statistics ]=============================
c |                                                                             |
c |  Number of variables:         22400                                         |
c |  Number of clauses:           88127                                         |
c |  Parse time:                   0.01 s                                       |
c |                                                                             |
c ============================[ Search Statistics ]==============================
c | Conflicts |          ORIGINAL         |          LEARNT          | Progress |
c |           |    Vars  Clauses Literals |    Limit  Clauses Lit/Cl |          |
c ===============================================================================
c |       100 |   15904    69651   171348 |    25538      100     62 | 29.000 % |
c ===============================================================================
c restarts              : 2
c conflicts             : 146            (4562 /sec)
c decisions             : 489            (0.00 % random) (15280 /sec)
c propagations          : 157520         (4922192 /sec)
c conflict literals     : 10849          (5.07 % deleted)
d RESTARTS             2
d FAILURES             146          
d NODES                489          
d BACKTRACKS           489          
d PROPAGATIONS         157520       
d NOGOODSIZE           74.31 
d MEMORY               12.00 
d TIME                 0.032002 

s SATISFIABLE
